Version identifier: 20.1.0.0 | 2020-11-10 | 9bedb6d68
Tried aggregator 2 times.
MIP Presolve eliminated 1222 rows and 609 columns.
MIP Presolve modified 3184 coefficients.
Aggregator did 141 substitutions.
Reduced MIP has 1846 rows, 1465 columns, and 6058 nonzeros.
Reduced MIP has 304 binaries, 1161 generals, 0 SOSs, and 0 indicators.
Presolve time = 0.02 sec. (7.46 ticks)
Found incumbent of value 2312.000000 after 0.04 sec. (14.80 ticks)
Probing fixed 40 vars, tightened 446 bounds.
Probing time = 0.00 sec. (1.21 ticks)
Tried aggregator 2 times.
Detecting symmetries...
MIP Presolve eliminated 780 rows and 76 columns.
MIP Presolve modified 185 coefficients.
Aggregator did 24 substitutions.
Reduced MIP has 1042 rows, 1365 columns, and 3406 nonzeros.
Reduced MIP has 466 binaries, 899 generals, 0 SOSs, and 0 indicators.
Presolve time = 0.01 sec. (4.97 ticks)
Probing time = 0.00 sec. (0.30 ticks)
Clique table members: 45.
MIP emphasis: balance optimality and feasibility.
MIP search method: dynamic search.
Parallel mode: deterministic, using up to 24 threads.
Root relaxation solution time = 0.01 sec. (2.61 ticks)

        Nodes                                         Cuts/
   Node  Left     Objective  IInf  Best Integer    Best Bound    ItCnt     Gap

*     0+    0                         2312.0000        0.0000           100.00%
      0     0        0.0000    42     2312.0000        0.0000      306  100.00%
      0     0        0.0000    79     2312.0000      Cuts: 83      384  100.00%
      0     0        0.0000    73     2312.0000      Cuts: 87      491  100.00%
*     0+    0                           24.0000        0.0000           100.00%
      0     0        0.0000   111       24.0000      Cuts: 73      557  100.00%
*     0+    0                           15.0000        0.0000           100.00%
*     0+    0                           10.0000        0.0000           100.00%
      0     0        cutoff             10.0000       10.0000      557    0.00%
Elapsed time = 0.63 sec. (121.66 ticks, tree = 0.01 MB, solutions = 4)

Cover cuts applied:  1
Implied bound cuts applied:  29
Flow cuts applied:  4
Mixed integer rounding cuts applied:  16
Zero-half cuts applied:  60
Lift and project cuts applied:  6
Gomory fractional cuts applied:  17

Root node processing (before b&c):
  Real time             =    0.63 sec. (121.79 ticks)
Parallel b&c, 24 threads:
  Real time             =    0.00 sec. (0.00 ticks)
  Sync time (average)   =    0.00 sec.
  Wait time (average)   =    0.00 sec.
                          ------------
Total (root+branch&cut) =    0.63 sec. (121.79 ticks)

Solution status = Optimal
Solution LB = 10
Solution UB = 10
Runtime = 0.63452 seconds
	Command being timed: "/home/min/git_repos/CS598MEBProject/CNT-ILP/build/cnt -s 2 ./output/k8_n20/simC_c1_k8_n20_u1_s1_del04.input-left.cnp"
	User time (seconds): 10.03
	System time (seconds): 0.05
	Percent of CPU this job got: 1490%
	Elapsed (wall clock) time (h:mm:ss or m:ss): 0:00.67
	Average shared text size (kbytes): 0
	Average unshared data size (kbytes): 0
	Average stack size (kbytes): 0
	Average total size (kbytes): 0
	Maximum resident set size (kbytes): 85620
	Average resident set size (kbytes): 0
	Major (requiring I/O) page faults: 0
	Minor (reclaiming a frame) page faults: 18225
	Voluntary context switches: 3810
	Involuntary context switches: 1497
	Swaps: 0
	File system inputs: 0
	File system outputs: 16
	Socket messages sent: 0
	Socket messages received: 0
	Signals delivered: 0
	Page size (bytes): 4096
	Exit status: 0
